09-routing/solutions/XSH-n20-k4-15.opt.sol
Route #1: 12 9 11 2 16 6
Route #2: 8 7 10 15 4 5
Route #3: 17 1 20
Route #4: 18 14 3 19 13
Cost 780
